[VALIDATOR STDOUT]
Checking plan: /home/jfan5/Safety-gen/runs/benchmark/optic/ferry_20260205_141548/ferry/optic_results/ferry-l15-c08-s15001.plan
Plan to validate:

Plan size: 29
1:
(board c3 l9)
 
2:
(sail l9 l8)
 
3:
(sail l8 l7)
 
4:
(debark c3 l7)
 
5:
(sail l7 l8)
 
6:
(sail l8 l5)
 
7:
(board c2 l5)
 
8:
(sail l5 l8)
 
9:
(sail l8 l1)
 
10:
(debark c2 l1)
 
11:
(sail l1 l8)
 
12:
(sail l8 l3)
 
13:
(board c6 l3)
 
14:
(sail l3 l12)
 
15:
(debark c6 l12)
 
16:
(sail l12 l8)
 
17:
(sail l8 l3)
 
18:
(board c1 l3)
 
19:
(sail l3 l8)
 
20:
(debark c1 l8)
 
21:
(sail l8 l2)
 
22:
(board c0 l2)
 
23:
(sail l2 l8)
 
24:
(debark c0 l8)
 
25:
(sail l8 l13)
 
26:
(sail l13 l11)
 
27:
(board c7 l11)
 
28:
(sail l11 l13)
 
29:
(debark c7 l13)
 

Plan Validation details
-----------------------

Checking next happening (time 1)
Deleting (at c3 l9)
Deleting (empty-ferry)
Adding (on c3)

Checking next happening (time 2)
Deleting (at-ferry l9)
Adding (at-ferry l8)

Checking next happening (time 3)
Deleting (at-ferry l8)
Adding (at-ferry l7)

Checking next happening (time 4)
Deleting (on c3)
Adding (at c3 l7)
Adding (empty-ferry)

Checking next happening (time 5)
Deleting (at-ferry l7)
Adding (at-ferry l8)

Checking next happening (time 6)
Deleting (at-ferry l8)
Adding (at-ferry l5)

Checking next happening (time 7)
Deleting (at c2 l5)
Deleting (empty-ferry)
Adding (on c2)

Checking next happening (time 8)
Deleting (at-ferry l5)
Adding (at-ferry l8)

Checking next happening (time 9)
Deleting (at-ferry l8)
Adding (at-ferry l1)

Checking next happening (time 10)
Deleting (on c2)
Adding (at c2 l1)
Adding (empty-ferry)

Checking next happening (time 11)
Deleting (at-ferry l1)
Adding (at-ferry l8)

Checking next happening (time 12)
Deleting (at-ferry l8)
Adding (at-ferry l3)

Checking next happening (time 13)
Deleting (at c6 l3)
Deleting (empty-ferry)
Adding (on c6)

Checking next happening (time 14)
Deleting (at-ferry l3)
Adding (at-ferry l12)

Checking next happening (time 15)
Deleting (on c6)
Adding (at c6 l12)
Adding (empty-ferry)

Checking next happening (time 16)
Deleting (at-ferry l12)
Adding (at-ferry l8)

Checking next happening (time 17)
Deleting (at-ferry l8)
Adding (at-ferry l3)

Checking next happening (time 18)
Deleting (at c1 l3)
Deleting (empty-ferry)
Adding (on c1)

Checking next happening (time 19)
Deleting (at-ferry l3)
Adding (at-ferry l8)

Checking next happening (time 20)
Deleting (on c1)
Adding (at c1 l8)
Adding (empty-ferry)

Checking next happening (time 21)
Deleting (at-ferry l8)
Adding (at-ferry l2)

Checking next happening (time 22)
Deleting (at c0 l2)
Deleting (empty-ferry)
Adding (on c0)

Checking next happening (time 23)
Deleting (at-ferry l2)
Adding (at-ferry l8)

Checking next happening (time 24)
Deleting (on c0)
Adding (at c0 l8)
Adding (empty-ferry)

Checking next happening (time 25)
Deleting (at-ferry l8)
Adding (at-ferry l13)

Checking next happening (time 26)
Deleting (at-ferry l13)
Adding (at-ferry l11)

Checking next happening (time 27)
Deleting (at c7 l11)
Deleting (empty-ferry)
Adding (on c7)

Checking next happening (time 28)
Deleting (at-ferry l11)
Adding (at-ferry l13)

Checking next happening (time 29)
Deleting (on c7)
Adding (at c7 l13)
Adding (empty-ferry)
Plan executed successfully - checking goal
Plan valid
Final value: 29 

Successful plans:
Value: 29
 /home/jfan5/Safety-gen/runs/benchmark/optic/ferry_20260205_141548/ferry/optic_results/ferry-l15-c08-s15001.plan 29
